TOUR_SECTION
1
155
194
63
93
119
76
173
101
200
146
54
23
187
18
55
29
128
107
168
135
110
51
4
98
172
149
120
58
99
43
84
87
12
195
34
137
47
57
175
176
126
184
31
118
100
95
24
2
157
115
19
97
8
82
199
117
30
131
127
178
83
33
70
15
145
7
103
154
196
108
125
27
35
13
45
53
185
111
136
17
151
60
112
105
163
169
6
86
69
89
189
96
143
38
179
114
141
71
72
201
160
66
180
166
91
11
148
192
80
81
162
190
59
85
5
64
20
171
102
40
198
193
181
197
130
159
61
138
74
188
152
183
122
39
140
26
129
41
164
104
9
49
144
156
14
123
46
133
88
79
150
73
68
22
75
191
16
121
32
77
65
124
167
165
139
132
116
3
174
28
106
94
78
21
92
25
50
182
56
37
186
170
147
52
177
42
153
113
36
44
62
48
67
10
142
109
161
90
158
134
-1
EOF